NAME          
ROWS
 N  OBJ
 L  c1
 L  c2
 L  c3
 L  c4
 L  c5
COLUMNS
    MARKER    'MARKER'                 'INTORG'
    x[1]      c1        589
    x[1]      c2        755
    x[1]      c3        572
    x[1]      c4        121
    x[1]      c5        652
    x[1]      OBJ       -168
    x[2]      c1        723
    x[2]      c2        845
    x[2]      c3        8
    x[2]      c4        345
    x[2]      c5        307
    x[2]      OBJ       -72
    x[3]      c1        464
    x[3]      c2        323
    x[3]      c3        615
    x[3]      c4        294
    x[3]      c5        881
    x[3]      OBJ       -278
    x[4]      c1        687
    x[4]      c2        270
    x[4]      c3        125
    x[4]      c4        311
    x[4]      c5        661
    x[4]      OBJ       -359
    x[5]      c1        102
    x[5]      c2        118
    x[5]      c3        796
    x[5]      c4        602
    x[5]      c5        474
    x[5]      OBJ       -989
    x[6]      c1        548
    x[6]      c2        721
    x[6]      c3        207
    x[6]      c4        657
    x[6]      c5        41
    x[6]      OBJ       -908
    x[7]      c1        166
    x[7]      c2        404
    x[7]      c3        816
    x[7]      c4        381
    x[7]      c5        128
    x[7]      OBJ       -299
    x[8]      c1        167
    x[8]      c2        948
    x[8]      c3        96
    x[8]      c4        563
    x[8]      c5        825
    x[8]      OBJ       -112
    x[9]      c1        110
    x[9]      c2        488
    x[9]      c3        803
    x[9]      c4        939
    x[9]      c5        732
    x[9]      OBJ       -166
    x[10]     c1        728
    x[10]     c2        954
    x[10]     c3        977
    x[10]     c4        30
    x[10]     c5        790
    x[10]     OBJ       -73
    x[11]     c1        981
    x[11]     c2        121
    x[11]     c3        562
    x[11]     c4        200
    x[11]     c5        900
    x[11]     OBJ       -287
    x[12]     c1        312
    x[12]     c2        476
    x[12]     c3        216
    x[12]     c4        974
    x[12]     c5        377
    x[12]     OBJ       -304
    x[13]     c1        519
    x[13]     c2        398
    x[13]     c3        658
    x[13]     c4        251
    x[13]     c5        813
    x[13]     OBJ       -357
    x[14]     c1        561
    x[14]     c2        460
    x[14]     c3        883
    x[14]     c4        542
    x[14]     c5        217
    x[14]     OBJ       -144
    x[15]     c1        20
    x[15]     c2        437
    x[15]     c3        609
    x[15]     c4        885
    x[15]     c5        233
    x[15]     OBJ       -862
    x[16]     c1        92
    x[16]     c2        162
    x[16]     c3        639
    x[16]     c4        431
    x[16]     c5        23
    x[16]     OBJ       -891
    x[17]     c1        165
    x[17]     c2        531
    x[17]     c3        771
    x[17]     c4        446
    x[17]     c5        133
    x[17]     OBJ       -545
    x[18]     c1        558
    x[18]     c2        860
    x[18]     c3        146
    x[18]     c4        151
    x[18]     c5        878
    x[18]     OBJ       -387
    x[19]     c1        881
    x[19]     c2        221
    x[19]     c3        526
    x[19]     c4        243
    x[19]     c5        473
    x[19]     OBJ       -659
    x[20]     c1        566
    x[20]     c2        892
    x[20]     c3        115
    x[20]     c4        856
    x[20]     c5        242
    x[20]     OBJ       -130
    x[21]     c1        951
    x[21]     c2        240
    x[21]     c3        251
    x[21]     c4        642
    x[21]     c5        831
    x[21]     OBJ       -241
    x[22]     c1        620
    x[22]     c2        622
    x[22]     c3        813
    x[22]     c4        728
    x[22]     c5        107
    x[22]     OBJ       -510
    x[23]     c1        917
    x[23]     c2        368
    x[23]     c3        49
    x[23]     c4        10
    x[23]     c5        926
    x[23]     OBJ       -577
    x[24]     c1        715
    x[24]     c2        981
    x[24]     c3        284
    x[24]     c4        63
    x[24]     c5        321
    x[24]     OBJ       -416
    x[25]     c1        766
    x[25]     c2        124
    x[25]     c3        697
    x[25]     c4        130
    x[25]     c5        145
    x[25]     OBJ       -977
    x[26]     c1        173
    x[26]     c2        962
    x[26]     c3        847
    x[26]     c4        816
    x[26]     c5        89
    x[26]     OBJ       -971
    x[27]     c1        172
    x[27]     c2        78
    x[27]     c3        941
    x[27]     c4        530
    x[27]     c5        172
    x[27]     OBJ       -175
    x[28]     c1        65
    x[28]     c2        498
    x[28]     c3        1000
    x[28]     c4        577
    x[28]     c5        154
    x[28]     OBJ       -9
    x[29]     c1        446
    x[29]     c2        102
    x[29]     c3        878
    x[29]     c4        375
    x[29]     c5        866
    x[29]     OBJ       -521
    x[30]     c1        140
    x[30]     c2        856
    x[30]     c3        829
    x[30]     c4        841
    x[30]     c5        744
    x[30]     OBJ       -182
    x[31]     c1        448
    x[31]     c2        198
    x[31]     c3        609
    x[31]     c4        630
    x[31]     c5        733
    x[31]     OBJ       -464
    x[32]     c1        896
    x[32]     c2        81
    x[32]     c3        366
    x[32]     c4        14
    x[32]     c5        523
    x[32]     OBJ       -901
    x[33]     c1        196
    x[33]     c2        875
    x[33]     c3        908
    x[33]     c4        964
    x[33]     c5        53
    x[33]     OBJ       -117
    x[34]     c1        920
    x[34]     c2        724
    x[34]     c3        287
    x[34]     c4        257
    x[34]     c5        714
    x[34]     OBJ       -602
    x[35]     c1        378
    x[35]     c2        231
    x[35]     c3        209
    x[35]     c4        923
    x[35]     c5        196
    x[35]     OBJ       -887
    x[36]     c1        738
    x[36]     c2        198
    x[36]     c3        578
    x[36]     c4        765
    x[36]     c5        137
    x[36]     OBJ       -731
    x[37]     c1        804
    x[37]     c2        806
    x[37]     c3        604
    x[37]     c4        283
    x[37]     c5        302
    x[37]     OBJ       -206
    x[38]     c1        526
    x[38]     c2        803
    x[38]     c3        79
    x[38]     c4        334
    x[38]     c5        158
    x[38]     OBJ       -92
    x[39]     c1        259
    x[39]     c2        43
    x[39]     c3        428
    x[39]     c4        291
    x[39]     c5        204
    x[39]     OBJ       -642
    x[40]     c1        786
    x[40]     c2        126
    x[40]     c3        366
    x[40]     c4        400
    x[40]     c5        572
    x[40]     OBJ       -78
    x[41]     c1        464
    x[41]     c2        599
    x[41]     c3        259
    x[41]     c4        288
    x[41]     c5        228
    x[41]     OBJ       -665
    x[42]     c1        616
    x[42]     c2        517
    x[42]     c3        703
    x[42]     c4        690
    x[42]     c5        532
    x[42]     OBJ       -171
    x[43]     c1        899
    x[43]     c2        542
    x[43]     c3        8
    x[43]     c4        371
    x[43]     c5        220
    x[43]     OBJ       -315
    x[44]     c1        354
    x[44]     c2        896
    x[44]     c3        69
    x[44]     c4        889
    x[44]     c5        747
    x[44]     OBJ       -366
    x[45]     c1        197
    x[45]     c2        301
    x[45]     c3        502
    x[45]     c4        793
    x[45]     c5        335
    x[45]     OBJ       -758
RHS
    rhs       c1        11192
    rhs       c2        11078
    rhs       c3        11352
    rhs       c4        10913
    rhs       c5        9894
RANGES
BOUNDS
 BV bounds    x[1]
 BV bounds    x[2]
 BV bounds    x[3]
 BV bounds    x[4]
 BV bounds    x[5]
 BV bounds    x[6]
 BV bounds    x[7]
 BV bounds    x[8]
 BV bounds    x[9]
 BV bounds    x[10]
 BV bounds    x[11]
 BV bounds    x[12]
 BV bounds    x[13]
 BV bounds    x[14]
 BV bounds    x[15]
 BV bounds    x[16]
 BV bounds    x[17]
 BV bounds    x[18]
 BV bounds    x[19]
 BV bounds    x[20]
 BV bounds    x[21]
 BV bounds    x[22]
 BV bounds    x[23]
 BV bounds    x[24]
 BV bounds    x[25]
 BV bounds    x[26]
 BV bounds    x[27]
 BV bounds    x[28]
 BV bounds    x[29]
 BV bounds    x[30]
 BV bounds    x[31]
 BV bounds    x[32]
 BV bounds    x[33]
 BV bounds    x[34]
 BV bounds    x[35]
 BV bounds    x[36]
 BV bounds    x[37]
 BV bounds    x[38]
 BV bounds    x[39]
 BV bounds    x[40]
 BV bounds    x[41]
 BV bounds    x[42]
 BV bounds    x[43]
 BV bounds    x[44]
 BV bounds    x[45]
ENDATA
